37 1000
3 182
5 115
10 178
10 163
7 19
2 178
5 115
7 137
5 115
3 163
8 176
2 176
6 191
10 175
11 175
6 169
7 137
2 183
2 182
9 119
7 200
9 142
2 101
7 182
6 183
3 182
8 115
3 131
8 200
3 101
5 191
8 142
8 158
6 169
8 131
3 158
11 119
